22
1 21
1 17
1 15
1 14
1 5
1 0
1 7
21 7
21 16
21 10
21 20
21 9
21 8
7 12
7 15
7 14
7 18
7 2
12 4
12 5
12 10
12 14
12 0
12 19
17 20
17 13
17 3
17 0
17 2
17 11
20 8
20 18
20 9
20 14
20 6
15 16
15 9
15 5
15 4
15 2
16 13
16 8
16 14
16 5
16 6
8 9
8 14
8 11
8 3
9 18
9 3
9 13
13 4
13 2
13 19
13 6
4 19
4 10
4 11
4 3
18 19
18 11
18 6
18 0
19 2
19 10
19 0
10 6
10 3
10 2
0 3
0 5
3 5
6 14
6 11
2 11
5 11
